9705.0,62.67,77.74
9389.93,64.77,80.35
9929.26,61.25,75.99
10170.13,59.8,74.19
10572.68,57.53,71.36
10275.58,59.19,73.43
9868.57,61.63,76.45
10026.16,60.66,75.25
9947.65,61.14,75.85
9530.86,63.81,79.16
10503.32,57.91,71.83
8835.24,68.84,85.39
10540.37,57.7,71.58
9594.49,63.39,78.64
9382.42,64.82,80.41
10234.94,59.43,73.72
9553.33,63.66,78.98
10525.59,57.78,71.68
10449.28,58.21,72.2
10286.69,59.13,73.35
